proyfinal/src/viki/013/experimentInOfficeAgust.take6.output/37b52fb4-6454-4a75-9db0-3ca76614f921.als.dat
{'cnf.clauses': '118081',
 'cnf.totvars': '69608',
 'conflict literals': '8',
 'conflicts': '6',
 'decisions': '2702',
 'memused.mb': '16.98',
 'outcome': 'UNSAT',
 'propagations': '24543',
 'restarts': '1',
 'solver.msecs': 30,
 'task.msecs': 78}
