proyfinal/src/viki/013/experimentInOfficeAgust.take6.output/37b52fb4-6454-4a75-9db0-3ca76614f921.als.out
Reading from standard input... Use '--help' for help.
============================[ Problem Statistics ]=============================
|                                                                             |
|  Number of variables:         69608                                         |
|  Number of clauses:          118081                                         |
|  Parse time:                   0.02 s                                       |
|                                                                             |
============================[ Search Statistics ]==============================
| Conflicts |          ORIGINAL         |          LEARNT          | Progress |
|           |    Vars  Clauses Literals |    Limit  Clauses Lit/Cl |          |
===============================================================================
===============================================================================
restarts              : 1
conflicts             : 6              (194 /sec)
decisions             : 2702           (0.00 % random) (87557 /sec)
propagations          : 24543          (795301 /sec)
conflict literals     : 8              (0.00 % deleted)
Memory used           : 16.98 MB
CPU time              : 0.03086 s

UNSATISFIABLE
